solution status: optimal solution found
objective value:                     177146.007582131
d11(0,0)                                            1 	(obj:0)
d11(1,1)                                            1 	(obj:0)
d11(2,5)                             1.00000000000009 	(obj:0)
d11(3,9)                                            1 	(obj:0)
d11(3,11)                                           1 	(obj:0)
d11(3,13)                                           1 	(obj:0)
d11(4,15)                                           1 	(obj:0)
d11(4,17)                                           1 	(obj:0)
d11(4,19)                                           1 	(obj:0)
d11(4,21)                                           1 	(obj:0)
d11(4,23)                                           1 	(obj:0)
d11(4,25)                                           1 	(obj:0)
d11(4,27)                                           1 	(obj:0)
d11(4,29)                                           1 	(obj:0)
d11(5,31)                                           1 	(obj:0)
d11(5,32)                                           1 	(obj:0)
d11(5,33)                                           1 	(obj:0)
d11(5,35)                                           1 	(obj:0)
d11(5,37)                                           1 	(obj:0)
d11(5,38)                                           1 	(obj:0)
d11(5,39)                                           1 	(obj:0)
d11(5,40)                                           1 	(obj:0)
d11(5,41)                                           1 	(obj:0)
d11(5,42)                                           1 	(obj:0)
d11(5,43)                                           1 	(obj:0)
d11(5,44)                                           1 	(obj:0)
d11(5,45)                                           1 	(obj:0)
d11(5,46)                                           1 	(obj:0)
d11(5,47)                                           1 	(obj:0)
d11(5,49)                                           1 	(obj:0)
d11(5,50)                                           1 	(obj:0)
d11(5,51)                                           1 	(obj:0)
d11(5,52)                                           1 	(obj:0)
d11(5,53)                                           1 	(obj:0)
d11(5,55)                                           1 	(obj:0)
d11(5,56)                                           1 	(obj:0)
d11(5,57)                                           1 	(obj:0)
d11(5,59)                                           1 	(obj:0)
d11(5,60)                                           1 	(obj:0)
d11(5,61)                                           1 	(obj:0)
d11(5,62)                                           1 	(obj:0)
d12(2,4)                                            1 	(obj:0)
d12(2,6)                                            1 	(obj:0)
d12(3,8)                                            1 	(obj:0)
d12(3,10)                                           1 	(obj:0)
d12(3,12)                                           1 	(obj:0)
d12(3,14)                                           1 	(obj:0)
d12(4,16)                                           1 	(obj:0)
d12(4,18)                                           1 	(obj:0)
d12(4,20)                                           1 	(obj:0)
d12(4,22)                                           1 	(obj:0)
d12(4,24)                                           1 	(obj:0)
d12(4,26)                                           1 	(obj:0)
d12(4,28)                                           1 	(obj:0)
d12(4,30)                                           1 	(obj:0)
d21(4,15)                                           1 	(obj:0)
d21(5,31)                                           1 	(obj:0)
d21(5,32)                                           1 	(obj:0)
d21(5,33)                                           1 	(obj:0)
d21(5,34)                                           1 	(obj:0)
d21(5,35)                                           1 	(obj:0)
d21(5,36)                                           1 	(obj:0)
d21(5,37)                                           1 	(obj:0)
d21(5,39)                                           1 	(obj:0)
d21(5,40)                                           1 	(obj:0)
d21(5,41)                                           1 	(obj:0)
d21(5,43)                                           1 	(obj:0)
d21(5,47)                                           1 	(obj:0)
d21(5,49)                                           1 	(obj:0)
d21(5,51)                                           1 	(obj:0)
d21(5,55)                                           1 	(obj:0)
STE(1,1)                             11382.7501011112 	(obj:0)
STE(0,0)                                        14175 	(obj:0)
STE(1,2)                                        13041 	(obj:0)
STE(2,3)                             10248.7501011112 	(obj:0)
STE(2,4)                             11564.9641869877 	(obj:0)
STE(2,5)                             11907.0000000855 	(obj:0)
STE(2,6)                             13223.2140858765 	(obj:0)
STE(3,7)                             9114.75010111115 	(obj:0)
STE(3,8)                             10430.9641869877 	(obj:0)
STE(3,9)                             10430.9641869877 	(obj:0)
STE(3,10)                            11747.1782728642 	(obj:0)
STE(3,11)                            10773.0000000855 	(obj:0)
STE(3,12)                             12089.214085962 	(obj:0)
STE(3,13)                            12089.2140858765 	(obj:0)
STE(3,14)                             13405.428171753 	(obj:0)
STE(4,15)                            6563.24985102569 	(obj:0)
STE(4,16)                            8035.53360729427 	(obj:0)
STE(4,17)                             7879.4639369022 	(obj:0)
STE(4,18)                            9351.74769317078 	(obj:0)
STE(4,19)                            7879.46393690224 	(obj:0)
STE(4,20)                            9351.74769317082 	(obj:0)
STE(4,21)                             9195.6780227787 	(obj:0)
STE(4,22)                            10667.9617790473 	(obj:0)
STE(4,23)                                  8221.49975 	(obj:0)
STE(4,24)                             9693.7835062686 	(obj:0)
STE(4,25)                            9537.71383587652 	(obj:0)
STE(4,26)                            11009.9975921451 	(obj:0)
STE(4,27)                            9537.71383579104 	(obj:0)
STE(4,28)                            11009.9975920596 	(obj:0)
STE(4,29)                            10853.9279216676 	(obj:0)
STE(4,30)                            12326.2116779361 	(obj:0)
STE(5,31)                            3770.99995213684 	(obj:0)
STE(5,32)                            5429.24985102569 	(obj:0)
STE(5,33)                            5243.28370840542 	(obj:0)
STE(5,34)                            6901.53360729427 	(obj:0)
STE(5,35)                            5087.21403801335 	(obj:0)
STE(5,36)                             6745.4639369022 	(obj:0)
STE(5,37)                            6559.49779428193 	(obj:0)
STE(5,38)                            8217.74769317078 	(obj:0)
STE(5,39)                            5087.21403801339 	(obj:0)
STE(5,40)                            6745.46393690221 	(obj:0)
STE(5,41)                            6559.49779428197 	(obj:0)
STE(5,42)                            8217.74769317082 	(obj:0)
STE(5,43)                            6403.42812388986 	(obj:0)
STE(5,44)                             8061.6780227787 	(obj:0)
STE(5,45)                            7875.71188015843 	(obj:0)
STE(5,46)                            9533.96177904728 	(obj:0)
STE(5,47)                            5429.24985111115 	(obj:0)
STE(5,48)                                  7087.49975 	(obj:0)
STE(5,49)                            6901.53360737975 	(obj:0)
STE(5,50)                             8559.7835062686 	(obj:0)
STE(5,51)                            6745.46393698768 	(obj:0)
STE(5,52)                            8403.71383587652 	(obj:0)
STE(5,53)                            8217.74769325626 	(obj:0)
STE(5,54)                             9875.9975921451 	(obj:0)
STE(5,55)                             6745.4639369022 	(obj:0)
STE(5,56)                            8403.71383579104 	(obj:0)
STE(5,57)                            8217.74769317078 	(obj:0)
STE(5,58)                            9875.99759205962 	(obj:0)
STE(5,59)                            8061.67802277871 	(obj:0)
STE(5,60)                            9719.92792166755 	(obj:0)
STE(5,61)                            9533.96177904728 	(obj:0)
STE(5,62)                            11192.2116779361 	(obj:0)
y1(5,39)                             1492.42490899996 	(obj:0)
y1(5,41)                             1492.42490899996 	(obj:0)
y1(5,43)                             1492.42490899996 	(obj:0)
y1(5,45)                             1492.42490899996 	(obj:0)
y1(5,47)                             1492.42490899996 	(obj:0)
y1(5,49)                             1492.42490899996 	(obj:0)
y1(5,51)                             1492.42490899996 	(obj:0)
y1(5,53)                             1492.42490899996 	(obj:0)
y1(5,55)                             1492.42490899996 	(obj:0)
y1(5,57)                             1492.42490899996 	(obj:0)
y1(5,59)                             1492.42490899996 	(obj:0)
y1(5,61)                             1492.42490899996 	(obj:0)
AVE(1)                                   3216.9117036 	(obj:0)
WB(2)                                    3366.1541945 	(obj:0)
AVE(2)                                   3366.1541945 	(obj:0)
WB(3)                                 841.98674662449 	(obj:0)
AVE(3)                                   3515.3966854 	(obj:0)
AVE(4)                               3515.39406545826 	(obj:0)
WB(5)                                3167.15385943327 	(obj:0)
AVE(5)                               3167.15385943327 	(obj:0)
WG(1)                                    3216.9117036 	(obj:10)
WG(3)                                2673.40993877551 	(obj:10)
WG(4)                                3515.39406545826 	(obj:10)
BG(1)                                979.380795379592 	(obj:10)
BG(2)                                2673.40993877551 	(obj:10)
BG(4)                                459.801817273279 	(obj:10)
BG(5)                                4196.29249897959 	(obj:10)
y1(1,1)                              1492.42490899996 	(obj:0)
y1(2,5)                          -7.69319012761116e-008 	(obj:0)
y1(4,15)                             1275.75022507692 	(obj:0)
y1(4,17)                             1275.75022507692 	(obj:0)
y1(4,19)                             1275.75022507692 	(obj:0)
y1(4,21)                             1275.75022507692 	(obj:0)
y1(4,23)                             1275.75022507693 	(obj:0)
y1(4,25)                             1275.75022507692 	(obj:0)
y1(4,27)                             1275.75022507692 	(obj:0)
y1(4,29)                             1275.75022507692 	(obj:0)
y1(5,31)                             1492.42490899996 	(obj:0)
y1(5,33)                             1492.42490899996 	(obj:0)
y1(5,35)                             1492.42490899996 	(obj:0)
y1(5,37)                             1492.42490899996 	(obj:0)
y2(2,4)                              1385.48851144895 	(obj:0)
y2(2,6)                              1385.48851144895 	(obj:0)
y2(3,8)                              1385.48851144895 	(obj:0)
y2(3,10)                             1385.48851144895 	(obj:0)
y2(3,12)                             1385.48851144895 	(obj:0)
y2(3,14)                             1385.48851144895 	(obj:0)
y2(4,16)                             57.6668486138044 	(obj:0)
y2(4,18)                             57.6668486138052 	(obj:0)
y2(4,20)                             57.6668486138052 	(obj:0)
y2(4,22)                             57.6668486138045 	(obj:0)
y2(4,24)                             57.6668486138052 	(obj:0)
y2(4,26)                             57.6668486138052 	(obj:0)
y2(4,28)                             57.6668486138052 	(obj:0)
y2(4,30)                             57.6668486138052 	(obj:0)
